(declare-fun var0 () String)
(assert (RegexIn var0 (RegexConcat (RegexStar (RegexPlus (Str2Reg "GG"))) (RegexConcat (RegexUnion (RegexUnion (Str2Reg "DDD") (Str2Reg "E")) (RegexStar (Str2Reg "F"))) (RegexConcat (RegexUnion (RegexStar (Str2Reg "AA")) (RegexUnion (Str2Reg "BB") (Str2Reg "C"))) (RegexConcat (RegexPlus (RegexStar (Str2Reg "zzz"))) (RegexConcat (RegexStar (RegexPlus (Str2Reg "y"))) (RegexConcat (RegexUnion (RegexStar (Str2Reg "www")) (RegexStar (Str2Reg "xxx"))) (RegexConcat (RegexUnion (RegexStar (Str2Reg "ttt")) (RegexUnion (Str2Reg "uuu") (Str2Reg "vvv"))) (RegexConcat (RegexUnion (RegexUnion (Str2Reg "p") (Str2Reg "q")) (RegexUnion (Str2Reg "rr") (Str2Reg "sss"))) (RegexConcat (RegexUnion (RegexUnion (Str2Reg "lll") (Str2Reg "mm")) (RegexUnion (Str2Reg "nnn") (Str2Reg "o"))) (RegexConcat (RegexStar (RegexUnion (Str2Reg "j") (Str2Reg "kkk"))) (RegexConcat (RegexStar (RegexPlus (Str2Reg "iii"))) (RegexConcat (RegexUnion (RegexPlus (Str2Reg "ggg")) (RegexStar (Str2Reg "h"))) (RegexConcat (RegexUnion (RegexUnion (Str2Reg "d") (Str2Reg "eee")) (RegexStar (Str2Reg "f"))) (RegexConcat (RegexUnion (RegexPlus (Str2Reg "b")) (RegexPlus (Str2Reg "cc"))) (RegexConcat (RegexStar (RegexPlus (Str2Reg "aaa"))) (RegexConcat (RegexPlus (RegexPlus (Str2Reg "99"))) (RegexConcat (RegexUnion (RegexStar (Str2Reg "777")) (RegexPlus (Str2Reg "8"))) (RegexConcat (RegexPlus (RegexPlus (Str2Reg "6"))) (RegexConcat (RegexUnion (RegexPlus (Str2Reg "44")) (RegexStar (Str2Reg "5"))) (RegexConcat (RegexPlus (RegexUnion (Str2Reg "22") (Str2Reg "33"))) (RegexPlus (RegexUnion (Str2Reg "000") (Str2Reg "11")))))))))))))))))))))))))
(check-sat)